TYPE : Vertex Cover
DIMENSION: 40
EDGE_DATA_SECTION:
0 2
0 6
0 10
0 12
0 17
0 18
0 19
0 20
0 26
0 36
0 39
1 3
1 5
1 7
1 8
1 12
1 16
1 21
1 26
1 27
1 31
1 34
1 39
2 4
2 9
2 12
2 15
2 16
2 27
2 32
2 33
2 38
3 8
3 15
3 18
3 19
3 24
3 27
3 28
3 38
4 11
4 16
4 25
4 29
4 30
4 34
4 36
5 9
5 10
5 17
5 22
5 25
5 26
5 27
5 28
5 30
6 11
6 15
6 16
6 23
6 24
6 27
6 31
6 34
6 35
6 36
6 38
7 11
7 14
7 18
7 21
7 22
7 25
7 30
7 31
8 10
8 11
8 12
8 22
8 24
8 27
8 28
8 32
8 33
8 34
8 37
8 39
9 14
9 23
9 29
9 32
9 35
9 39
10 11
10 18
10 25
10 26
10 28
10 29
10 34
11 16
11 22
11 24
11 25
11 26
11 28
11 32
12 21
12 24
12 27
12 29
12 31
12 32
12 33
12 35
12 36
12 37
12 39
13 17
13 19
13 21
13 25
13 26
13 30
13 37
14 16
14 23
14 26
14 27
14 28
14 29
14 31
14 37
15 16
15 24
15 28
15 32
15 33
15 34
15 35
15 36
16 17
16 18
16 24
16 26
16 28
16 30
16 34
16 35
17 18
17 20
17 24
17 28
17 32
17 33
17 37
17 38
18 22
18 25
18 29
18 31
18 32
18 36
19 21
19 24
19 26
19 27
19 28
19 35
19 36
19 38
20 23
20 29
20 35
20 37
21 24
21 30
21 31
21 33
21 34
21 38
22 24
22 27
22 31
22 33
22 37
22 38
22 39
23 29
23 31
23 35
23 36
24 28
24 32
24 39
25 31
25 34
25 35
26 31
26 32
26 34
26 36
26 37
26 38
27 28
27 30
27 31
27 37
28 38
29 32
29 34
29 35
29 38
29 39
30 36
30 38
30 39
31 32
31 35
31 38
33 34
33 37
34 35
34 37
35 38
35 39
-1
VERTEX_DEGREE:
11.0 12.0 10.0 9.0 8.0 10.0 12.0 9.0 14.0 8.0 10.0 12.0 15.0 7.0 10.0 11.0 15.0 12.0 12.0 11.0 6.0 11.0 12.0 8.0 14.0 10.0 15.0 14.0 13.0 13.0 10.0 15.0 12.0 9.0 14.0 14.0 10.0 11.0 13.0 10.0
VERTEX_COVER:
0 1 2 3 4 5 6 8 9 11 12 14 15 17 18 19 21 22 23 24 25 26 28 29 30 31 34 35 37
EOF
